unknown
(model
; cardinality of BoundSet is 3
(declare-sort BoundSet 0)
; rep: @uc_BoundSet_0
; rep: @uc_BoundSet_1
; rep: @uc_BoundSet_2
(declare-sort UnboundSet 0)
(define-fun IsSittingAlone ((BOUND_VARIABLE_382 BoundSet)) Bool true)
(define-fun IsInParkBench ((BOUND_VARIABLE_382 BoundSet)) Bool true)
(define-fun IsInSun ((BOUND_VARIABLE_382 BoundSet)) Bool true)
(define-fun IsInPark ((BOUND_VARIABLE_382 BoundSet)) Bool false)
)
